p cnf 70 162
a 1 2 3 4 5 6 7 8 9 10 11 12 13 14 0
e 15 16 17 18 19 20 21 22 23 24 25 26 27 28 29 30 31 32 33 34 35 36 37 38 39 40 41 42 43 44 45 46 47 48 49 50 51 52 53 54 55 56 57 58 59 60 61 62 63 64 65 66 67 68 69 0
-1 -26 0
8 -26 0
1 26 -8 0
-7 -27 0
26 -27 0
7 27 -26 0
28 -7 0
28 -27 0
7 27 -28 0
-6 -28 -29 0
6 28 -29 0
28 29 -6 0
6 29 -28 0
-2 -30 0
6 -30 0
2 30 -6 0
-10 -31 0
30 -31 0
10 31 -30 0
32 -10 0
32 -31 0
10 31 -32 0
-9 -32 -33 0
9 32 -33 0
32 33 -9 0
9 33 -32 0
-3 -34 0
9 -34 0
3 34 -9 0
-12 -35 0
34 -35 0
12 35 -34 0
36 -12 0
36 -35 0
12 35 -36 0
-11 -36 -37 0
11 36 -37 0
36 37 -11 0
11 37 -36 0
-4 -38 0
11 -38 0
4 38 -11 0
-14 -39 0
38 -39 0
14 39 -38 0
40 -14 0
40 -39 0
14 39 -40 0
-13 -40 -41 0
13 40 -41 0
40 41 -13 0
13 41 -40 0
-1 -42 0
-2 -42 0
-3 -42 0
-4 -42 0
-5 -42 0
-29 -42 0
-33 -42 0
-37 -42 0
-41 -42 0
1 2 3 4 5 29 33 37 41 42 0
-15 -43 0
21 -43 0
15 43 -21 0
-20 -44 0
43 -44 0
20 44 -43 0
45 -20 0
45 -44 0
20 44 -45 0
-19 -45 -46 0
19 45 -46 0
45 46 -19 0
19 46 -45 0
-16 -47 0
19 -47 0
16 47 -19 0
-23 -48 0
47 -48 0
23 48 -47 0
49 -23 0
49 -48 0
23 48 -49 0
-22 -49 -50 0
22 49 -50 0
49 50 -22 0
22 50 -49 0
-17 -51 0
22 -51 0
17 51 -22 0
-25 -52 0
51 -52 0
25 52 -51 0
53 -25 0
53 -52 0
25 52 -53 0
-24 -53 -54 0
24 53 -54 0
53 54 -24 0
24 54 -53 0
-15 -55 0
-16 -55 0
-17 -55 0
-18 -55 0
-46 -55 0
-50 -55 0
-54 -55 0
15 16 17 18 46 50 54 55 0
-5 -15 -56 0
5 15 -56 0
15 56 -5 0
5 56 -15 0
-13 -21 -57 0
13 21 -57 0
21 57 -13 0
13 57 -21 0
-56 -58 0
-57 -58 0
56 57 58 0
-5 -16 -59 0
5 16 -59 0
16 59 -5 0
5 59 -16 0
-13 -19 -60 0
13 19 -60 0
19 60 -13 0
13 60 -19 0
-59 -61 0
-60 -61 0
59 60 61 0
-5 -17 -62 0
5 17 -62 0
17 62 -5 0
5 62 -17 0
-13 -22 -63 0
13 22 -63 0
22 63 -13 0
13 63 -22 0
-62 -64 0
-63 -64 0
62 63 64 0
-5 -18 -65 0
5 18 -65 0
18 65 -5 0
5 65 -18 0
-13 -24 -66 0
13 24 -66 0
24 66 -13 0
13 66 -24 0
-65 -67 0
-66 -67 0
65 66 67 0
68 -58 0
68 -61 0
68 -64 0
68 -67 0
58 61 64 67 -68 0
55 -69 0
68 -69 0
69 -55 -68 0
69 -42 0
